proyfinal/src/viki/013/experimentInOfficeAgust.take6.output/952add74-aa2b-4899-9e4c-ed3b80fc4295.als.out
Reading from standard input... Use '--help' for help.
============================[ Problem Statistics ]=============================
|                                                                             |
|  Number of variables:         87638                                         |
|  Number of clauses:          161767                                         |
|  Parse time:                   0.04 s                                       |
|                                                                             |
============================[ Search Statistics ]==============================
| Conflicts |          ORIGINAL         |          LEARNT          | Progress |
|           |    Vars  Clauses Literals |    Limit  Clauses Lit/Cl |          |
===============================================================================
|       100 |   62640   106091   265264 |    38900      100     24 | 28.524 % |
|       250 |   62640   106091   265264 |    42790      250    132 | 28.524 % |
|       475 |   62640   106091   265264 |    47069      475     75 | 28.524 % |
|       812 |   62640   106091   265264 |    51775      812     89 | 28.524 % |
|      1318 |   62640   106091   265264 |    56953     1318    113 | 28.524 % |
|      2077 |   43881    50876   129691 |    62648     1930     85 | 49.929 % |
===============================================================================
restarts              : 15
conflicts             : 2445           (7890 /sec)
decisions             : 10020          (0.00 % random) (32334 /sec)
propagations          : 3223619        (10402462 /sec)
conflict literals     : 191915         (36.64 % deleted)
Memory used           : 23.06 MB
CPU time              : 0.30989 s

UNSATISFIABLE
